Minimize
	value: tt

Subject to
tt + 1000 s_1_1 > 0.0
tt - t_1_1 - 1001.503055 s_1_1  + 0.751527 s_1_8  + 0.751527 s_1_7  > -977.919800
tt + 1000 s_2_1 > 0.0
tt - t_2_1 - 1001.742321 s_2_1  + 0.871161 s_2_8  + 0.871161 s_2_7  > -956.476600
tt + 1000 s_1_2 > 0.0
tt - t_1_2 - 1000.751527 s_1_2  + 0.751527 s_1_7  > -977.899433
tt + 1000 s_2_2 > 0.0
tt - t_2_2 - 1000.871161 s_2_2  + 0.871161 s_2_7  > -956.283200
tt + 1000 s_1_3 > 0.0
tt - t_1_3 - 1001.503055 s_1_3  + 0.751527 s_1_8  + 0.751527 s_1_7  > -995.254100
tt + 1000 s_2_3 > 0.0
tt - t_2_3 - 1001.742321 s_2_3  + 0.871161 s_2_8  + 0.871161 s_2_7  > -994.041600
tt + 1000 s_1_4 > 0.0
tt - t_1_4 - 1000.751527 s_1_4  + 0.751527 s_1_7  > -990.790100
tt + 1000 s_2_4 > 0.0
tt - t_2_4 - 1000.871161 s_2_4  + 0.871161 s_2_7  > -990.748500
tt + 1000 s_1_5 > 0.0
tt - t_1_5 - 1000.751527 s_1_5  + 0.751527 s_1_8  > -989.973300
tt + 1000 s_2_5 > 0.0
tt - t_2_5 - 1000.871161 s_2_5  + 0.871161 s_2_8  > -978.759500
tt + 1000 s_1_6 > 0.0
tt - t_1_6 - 1004.509164 s_1_6  + 0.751527 s_1_7  + 0.751527 s_1_2  + 0.751527 s_1_3  + 0.751527 s_1_5  + 0.751527 s_1_1  + 0.751527 s_1_4  > -996.707500
tt + 1000 s_2_6 > 0.0
tt - t_2_6 - 1005.226964 s_2_6  + 0.871161 s_2_7  + 0.871161 s_2_2  + 0.871161 s_2_3  + 0.871161 s_2_5  + 0.871161 s_2_1  + 0.871161 s_2_4  > -995.104700
tt + 1000 s_1_7 > 0.0
tt - t_1_7 - 1000.000000 s_1_7  > -964.280000
tt + 1000 s_2_7 > 0.0
tt - t_2_7 - 1000.000000 s_2_7  > -953.948000
tt + 1000 s_1_8 > 0.0
tt - t_1_8 - 1000.000000 s_1_8  > -966.936200
tt + 1000 s_2_8 > 0.0
tt - t_2_8 - 1000.000000 s_2_8  > -955.619200
s_1_1 + s_2_1 = 1
s_1_2 + s_2_2 = 1
s_1_3 + s_2_3 = 1
s_1_4 + s_2_4 = 1
s_1_5 + s_2_5 = 1
s_1_6 + s_2_6 = 1
s_1_7 + s_2_7 = 1
s_1_8 + s_2_8 = 1
s_1_1 + s_1_2 + 1000 r_1_1_2 >= 2
- s_1_1 - s_1_2 - 1000 r_1_1_2 >= -1001
t_1_1 - t_1_2 - 1000.000000 u_1_1_2 - 0.751527 s_1_2  + 0.751527 s_1_7  + 2000.000000 r_1_1_2 > -977.899433
s_2_1 + s_2_2 + 1000 r_2_1_2 >= 2
- s_2_1 - s_2_2 - 1000 r_2_1_2 >= -1001
t_2_1 - t_2_2 - 1000.000000 u_2_1_2 - 0.871161 s_2_2  + 0.871161 s_2_7  + 2000.000000 r_2_1_2 > -956.283200
s_1_1 + s_1_3 + 1000 r_1_1_3 >= 2
- s_1_1 - s_1_3 - 1000 r_1_1_3 >= -1001
t_1_1 - t_1_3 - 1000.000000 u_1_1_3 - 1.503055 s_1_3  + 0.751527 s_1_8  + 0.751527 s_1_7  + 2000.000000 r_1_1_3 > -995.254100
s_2_1 + s_2_3 + 1000 r_2_1_3 >= 2
- s_2_1 - s_2_3 - 1000 r_2_1_3 >= -1001
t_2_1 - t_2_3 - 1000.000000 u_2_1_3 - 1.742321 s_2_3  + 0.871161 s_2_8  + 0.871161 s_2_7  + 2000.000000 r_2_1_3 > -994.041600
s_1_1 + s_1_4 + 1000 r_1_1_4 >= 2
- s_1_1 - s_1_4 - 1000 r_1_1_4 >= -1001
t_1_1 - t_1_4 - 1000.000000 u_1_1_4 - 0.751527 s_1_4  + 0.751527 s_1_7  + 2000.000000 r_1_1_4 > -990.790100
s_2_1 + s_2_4 + 1000 r_2_1_4 >= 2
- s_2_1 - s_2_4 - 1000 r_2_1_4 >= -1001
t_2_1 - t_2_4 - 1000.000000 u_2_1_4 - 0.871161 s_2_4  + 0.871161 s_2_7  + 2000.000000 r_2_1_4 > -990.748500
s_1_1 + s_1_5 + 1000 r_1_1_5 >= 2
- s_1_1 - s_1_5 - 1000 r_1_1_5 >= -1001
t_1_1 - t_1_5 - 1000.000000 u_1_1_5 - 0.751527 s_1_5  + 0.751527 s_1_8  + 2000.000000 r_1_1_5 > -989.973300
s_2_1 + s_2_5 + 1000 r_2_1_5 >= 2
- s_2_1 - s_2_5 - 1000 r_2_1_5 >= -1001
t_2_1 - t_2_5 - 1000.000000 u_2_1_5 - 0.871161 s_2_5  + 0.871161 s_2_8  + 2000.000000 r_2_1_5 > -978.759500
t_1_6 - t_1_1 - 1001.503055 s_1_1  + 0.751527 s_1_8  + 0.751527 s_1_7  > -977.919800
t_1_6 - t_2_1 - 1001.742321 s_2_1  + 0.871161 s_2_8  + 0.871161 s_2_7  > -956.476600
t_2_6 - t_1_1 - 1001.503055 s_1_1  + 0.751527 s_1_8  + 0.751527 s_1_7  > -977.919800
t_2_6 - t_2_1 - 1001.742321 s_2_1  + 0.871161 s_2_8  + 0.871161 s_2_7  > -956.476600
t_1_1 - t_1_7 - 1000.000000 s_1_7  > -964.280000
t_1_1 - t_2_7 - 1000.000000 s_2_7  > -953.948000
t_2_1 - t_1_7 - 1000.000000 s_1_7  > -964.280000
t_2_1 - t_2_7 - 1000.000000 s_2_7  > -953.948000
t_1_1 - t_1_8 - 1000.000000 s_1_8  > -966.936200
t_1_1 - t_2_8 - 1000.000000 s_2_8  > -955.619200
t_2_1 - t_1_8 - 1000.000000 s_1_8  > -966.936200
t_2_1 - t_2_8 - 1000.000000 s_2_8  > -955.619200
s_1_2 + s_1_1 + 1000 r_1_1_2 >= 2
- s_1_2 - s_1_1 - 1000 r_1_1_2 >= -1001
t_1_2 - t_1_1 + 1000.000000 u_1_1_2 - 1.503055 s_1_1  + 0.751527 s_1_8  + 0.751527 s_1_7  + 2000.000000 r_1_1_2 > 22.080200
s_2_2 + s_2_1 + 1000 r_2_1_2 >= 2
- s_2_2 - s_2_1 - 1000 r_2_1_2 >= -1001
t_2_2 - t_2_1 + 1000.000000 u_2_1_2 - 1.742321 s_2_1  + 0.871161 s_2_8  + 0.871161 s_2_7  + 2000.000000 r_2_1_2 > 43.523400
s_1_2 + s_1_3 + 1000 r_1_2_3 >= 2
- s_1_2 - s_1_3 - 1000 r_1_2_3 >= -1001
t_1_2 - t_1_3 - 1000.000000 u_1_2_3 - 1.503055 s_1_3  + 0.751527 s_1_8  + 0.751527 s_1_7  + 2000.000000 r_1_2_3 > -995.254100
s_2_2 + s_2_3 + 1000 r_2_2_3 >= 2
- s_2_2 - s_2_3 - 1000 r_2_2_3 >= -1001
t_2_2 - t_2_3 - 1000.000000 u_2_2_3 - 1.742321 s_2_3  + 0.871161 s_2_8  + 0.871161 s_2_7  + 2000.000000 r_2_2_3 > -994.041600
s_1_2 + s_1_4 + 1000 r_1_2_4 >= 2
- s_1_2 - s_1_4 - 1000 r_1_2_4 >= -1001
t_1_2 - t_1_4 - 1000.000000 u_1_2_4 - 0.751527 s_1_4  + 0.751527 s_1_7  + 2000.000000 r_1_2_4 > -990.790100
s_2_2 + s_2_4 + 1000 r_2_2_4 >= 2
- s_2_2 - s_2_4 - 1000 r_2_2_4 >= -1001
t_2_2 - t_2_4 - 1000.000000 u_2_2_4 - 0.871161 s_2_4  + 0.871161 s_2_7  + 2000.000000 r_2_2_4 > -990.748500
s_1_2 + s_1_5 + 1000 r_1_2_5 >= 2
- s_1_2 - s_1_5 - 1000 r_1_2_5 >= -1001
t_1_2 - t_1_5 - 1000.000000 u_1_2_5 - 0.751527 s_1_5  + 0.751527 s_1_8  + 2000.000000 r_1_2_5 > -989.973300
s_2_2 + s_2_5 + 1000 r_2_2_5 >= 2
- s_2_2 - s_2_5 - 1000 r_2_2_5 >= -1001
t_2_2 - t_2_5 - 1000.000000 u_2_2_5 - 0.871161 s_2_5  + 0.871161 s_2_8  + 2000.000000 r_2_2_5 > -978.759500
t_1_6 - t_1_2 - 1000.751527 s_1_2  + 0.751527 s_1_7  > -977.899433
t_1_6 - t_2_2 - 1000.871161 s_2_2  + 0.871161 s_2_7  > -956.283200
t_2_6 - t_1_2 - 1000.751527 s_1_2  + 0.751527 s_1_7  > -977.899433
t_2_6 - t_2_2 - 1000.871161 s_2_2  + 0.871161 s_2_7  > -956.283200
t_1_2 - t_1_7 - 1000.000000 s_1_7  > -964.280000
t_1_2 - t_2_7 - 1000.000000 s_2_7  > -953.948000
t_2_2 - t_1_7 - 1000.000000 s_1_7  > -964.280000
t_2_2 - t_2_7 - 1000.000000 s_2_7  > -953.948000
s_1_2 + s_1_8 + 1000 r_1_2_8 >= 2
- s_1_2 - s_1_8 - 1000 r_1_2_8 >= -1001
t_1_2 - t_1_8 - 1000.000000 u_1_2_8 - 0.000000 s_1_8  + 2000.000000 r_1_2_8 > -966.936200
s_2_2 + s_2_8 + 1000 r_2_2_8 >= 2
- s_2_2 - s_2_8 - 1000 r_2_2_8 >= -1001
t_2_2 - t_2_8 - 1000.000000 u_2_2_8 - 0.000000 s_2_8  + 2000.000000 r_2_2_8 > -955.619200
s_1_3 + s_1_1 + 1000 r_1_1_3 >= 2
- s_1_3 - s_1_1 - 1000 r_1_1_3 >= -1001
t_1_3 - t_1_1 + 1000.000000 u_1_1_3 - 1.503055 s_1_1  + 0.751527 s_1_8  + 0.751527 s_1_7  + 2000.000000 r_1_1_3 > 22.080200
s_2_3 + s_2_1 + 1000 r_2_1_3 >= 2
- s_2_3 - s_2_1 - 1000 r_2_1_3 >= -1001
t_2_3 - t_2_1 + 1000.000000 u_2_1_3 - 1.742321 s_2_1  + 0.871161 s_2_8  + 0.871161 s_2_7  + 2000.000000 r_2_1_3 > 43.523400
s_1_3 + s_1_2 + 1000 r_1_2_3 >= 2
- s_1_3 - s_1_2 - 1000 r_1_2_3 >= -1001
t_1_3 - t_1_2 + 1000.000000 u_1_2_3 - 0.751527 s_1_2  + 0.751527 s_1_7  + 2000.000000 r_1_2_3 > 22.100567
s_2_3 + s_2_2 + 1000 r_2_2_3 >= 2
- s_2_3 - s_2_2 - 1000 r_2_2_3 >= -1001
t_2_3 - t_2_2 + 1000.000000 u_2_2_3 - 0.871161 s_2_2  + 0.871161 s_2_7  + 2000.000000 r_2_2_3 > 43.716800
s_1_3 + s_1_4 + 1000 r_1_3_4 >= 2
- s_1_3 - s_1_4 - 1000 r_1_3_4 >= -1001
t_1_3 - t_1_4 - 1000.000000 u_1_3_4 - 0.751527 s_1_4  + 0.751527 s_1_7  + 2000.000000 r_1_3_4 > -990.790100
s_2_3 + s_2_4 + 1000 r_2_3_4 >= 2
- s_2_3 - s_2_4 - 1000 r_2_3_4 >= -1001
t_2_3 - t_2_4 - 1000.000000 u_2_3_4 - 0.871161 s_2_4  + 0.871161 s_2_7  + 2000.000000 r_2_3_4 > -990.748500
s_1_3 + s_1_5 + 1000 r_1_3_5 >= 2
- s_1_3 - s_1_5 - 1000 r_1_3_5 >= -1001
t_1_3 - t_1_5 - 1000.000000 u_1_3_5 - 0.751527 s_1_5  + 0.751527 s_1_8  + 2000.000000 r_1_3_5 > -989.973300
s_2_3 + s_2_5 + 1000 r_2_3_5 >= 2
- s_2_3 - s_2_5 - 1000 r_2_3_5 >= -1001
t_2_3 - t_2_5 - 1000.000000 u_2_3_5 - 0.871161 s_2_5  + 0.871161 s_2_8  + 2000.000000 r_2_3_5 > -978.759500
t_1_6 - t_1_3 - 1001.503055 s_1_3  + 0.751527 s_1_8  + 0.751527 s_1_7  > -995.254100
t_1_6 - t_2_3 - 1001.742321 s_2_3  + 0.871161 s_2_8  + 0.871161 s_2_7  > -994.041600
t_2_6 - t_1_3 - 1001.503055 s_1_3  + 0.751527 s_1_8  + 0.751527 s_1_7  > -995.254100
t_2_6 - t_2_3 - 1001.742321 s_2_3  + 0.871161 s_2_8  + 0.871161 s_2_7  > -994.041600
t_1_3 - t_1_7 - 1000.000000 s_1_7  > -964.280000
t_1_3 - t_2_7 - 1000.000000 s_2_7  > -953.948000
t_2_3 - t_1_7 - 1000.000000 s_1_7  > -964.280000
t_2_3 - t_2_7 - 1000.000000 s_2_7  > -953.948000
t_1_3 - t_1_8 - 1000.000000 s_1_8  > -966.936200
t_1_3 - t_2_8 - 1000.000000 s_2_8  > -955.619200
t_2_3 - t_1_8 - 1000.000000 s_1_8  > -966.936200
t_2_3 - t_2_8 - 1000.000000 s_2_8  > -955.619200
s_1_4 + s_1_1 + 1000 r_1_1_4 >= 2
- s_1_4 - s_1_1 - 1000 r_1_1_4 >= -1001
t_1_4 - t_1_1 + 1000.000000 u_1_1_4 - 1.503055 s_1_1  + 0.751527 s_1_8  + 0.751527 s_1_7  + 2000.000000 r_1_1_4 > 22.080200
s_2_4 + s_2_1 + 1000 r_2_1_4 >= 2
- s_2_4 - s_2_1 - 1000 r_2_1_4 >= -1001
t_2_4 - t_2_1 + 1000.000000 u_2_1_4 - 1.742321 s_2_1  + 0.871161 s_2_8  + 0.871161 s_2_7  + 2000.000000 r_2_1_4 > 43.523400
s_1_4 + s_1_2 + 1000 r_1_2_4 >= 2
- s_1_4 - s_1_2 - 1000 r_1_2_4 >= -1001
t_1_4 - t_1_2 + 1000.000000 u_1_2_4 - 0.751527 s_1_2  + 0.751527 s_1_7  + 2000.000000 r_1_2_4 > 22.100567
s_2_4 + s_2_2 + 1000 r_2_2_4 >= 2
- s_2_4 - s_2_2 - 1000 r_2_2_4 >= -1001
t_2_4 - t_2_2 + 1000.000000 u_2_2_4 - 0.871161 s_2_2  + 0.871161 s_2_7  + 2000.000000 r_2_2_4 > 43.716800
s_1_4 + s_1_3 + 1000 r_1_3_4 >= 2
- s_1_4 - s_1_3 - 1000 r_1_3_4 >= -1001
t_1_4 - t_1_3 + 1000.000000 u_1_3_4 - 1.503055 s_1_3  + 0.751527 s_1_8  + 0.751527 s_1_7  + 2000.000000 r_1_3_4 > 4.745900
s_2_4 + s_2_3 + 1000 r_2_3_4 >= 2
- s_2_4 - s_2_3 - 1000 r_2_3_4 >= -1001
t_2_4 - t_2_3 + 1000.000000 u_2_3_4 - 1.742321 s_2_3  + 0.871161 s_2_8  + 0.871161 s_2_7  + 2000.000000 r_2_3_4 > 5.958400
s_1_4 + s_1_5 + 1000 r_1_4_5 >= 2
- s_1_4 - s_1_5 - 1000 r_1_4_5 >= -1001
t_1_4 - t_1_5 - 1000.000000 u_1_4_5 - 0.751527 s_1_5  + 0.751527 s_1_8  + 2000.000000 r_1_4_5 > -989.973300
s_2_4 + s_2_5 + 1000 r_2_4_5 >= 2
- s_2_4 - s_2_5 - 1000 r_2_4_5 >= -1001
t_2_4 - t_2_5 - 1000.000000 u_2_4_5 - 0.871161 s_2_5  + 0.871161 s_2_8  + 2000.000000 r_2_4_5 > -978.759500
t_1_6 - t_1_4 - 1000.751527 s_1_4  + 0.751527 s_1_7  > -990.790100
t_1_6 - t_2_4 - 1000.871161 s_2_4  + 0.871161 s_2_7  > -990.748500
t_2_6 - t_1_4 - 1000.751527 s_1_4  + 0.751527 s_1_7  > -990.790100
t_2_6 - t_2_4 - 1000.871161 s_2_4  + 0.871161 s_2_7  > -990.748500
t_1_4 - t_1_7 - 1000.000000 s_1_7  > -964.280000
t_1_4 - t_2_7 - 1000.000000 s_2_7  > -953.948000
t_2_4 - t_1_7 - 1000.000000 s_1_7  > -964.280000
t_2_4 - t_2_7 - 1000.000000 s_2_7  > -953.948000
s_1_4 + s_1_8 + 1000 r_1_4_8 >= 2
- s_1_4 - s_1_8 - 1000 r_1_4_8 >= -1001
t_1_4 - t_1_8 - 1000.000000 u_1_4_8 - 0.000000 s_1_8  + 2000.000000 r_1_4_8 > -966.936200
s_2_4 + s_2_8 + 1000 r_2_4_8 >= 2
- s_2_4 - s_2_8 - 1000 r_2_4_8 >= -1001
t_2_4 - t_2_8 - 1000.000000 u_2_4_8 - 0.000000 s_2_8  + 2000.000000 r_2_4_8 > -955.619200
s_1_5 + s_1_1 + 1000 r_1_1_5 >= 2
- s_1_5 - s_1_1 - 1000 r_1_1_5 >= -1001
t_1_5 - t_1_1 + 1000.000000 u_1_1_5 - 1.503055 s_1_1  + 0.751527 s_1_8  + 0.751527 s_1_7  + 2000.000000 r_1_1_5 > 22.080200
s_2_5 + s_2_1 + 1000 r_2_1_5 >= 2
- s_2_5 - s_2_1 - 1000 r_2_1_5 >= -1001
t_2_5 - t_2_1 + 1000.000000 u_2_1_5 - 1.742321 s_2_1  + 0.871161 s_2_8  + 0.871161 s_2_7  + 2000.000000 r_2_1_5 > 43.523400
s_1_5 + s_1_2 + 1000 r_1_2_5 >= 2
- s_1_5 - s_1_2 - 1000 r_1_2_5 >= -1001
t_1_5 - t_1_2 + 1000.000000 u_1_2_5 - 0.751527 s_1_2  + 0.751527 s_1_7  + 2000.000000 r_1_2_5 > 22.100567
s_2_5 + s_2_2 + 1000 r_2_2_5 >= 2
- s_2_5 - s_2_2 - 1000 r_2_2_5 >= -1001
t_2_5 - t_2_2 + 1000.000000 u_2_2_5 - 0.871161 s_2_2  + 0.871161 s_2_7  + 2000.000000 r_2_2_5 > 43.716800
s_1_5 + s_1_3 + 1000 r_1_3_5 >= 2
- s_1_5 - s_1_3 - 1000 r_1_3_5 >= -1001
t_1_5 - t_1_3 + 1000.000000 u_1_3_5 - 1.503055 s_1_3  + 0.751527 s_1_8  + 0.751527 s_1_7  + 2000.000000 r_1_3_5 > 4.745900
s_2_5 + s_2_3 + 1000 r_2_3_5 >= 2
- s_2_5 - s_2_3 - 1000 r_2_3_5 >= -1001
t_2_5 - t_2_3 + 1000.000000 u_2_3_5 - 1.742321 s_2_3  + 0.871161 s_2_8  + 0.871161 s_2_7  + 2000.000000 r_2_3_5 > 5.958400
s_1_5 + s_1_4 + 1000 r_1_4_5 >= 2
- s_1_5 - s_1_4 - 1000 r_1_4_5 >= -1001
t_1_5 - t_1_4 + 1000.000000 u_1_4_5 - 0.751527 s_1_4  + 0.751527 s_1_7  + 2000.000000 r_1_4_5 > 9.209900
s_2_5 + s_2_4 + 1000 r_2_4_5 >= 2
- s_2_5 - s_2_4 - 1000 r_2_4_5 >= -1001
t_2_5 - t_2_4 + 1000.000000 u_2_4_5 - 0.871161 s_2_4  + 0.871161 s_2_7  + 2000.000000 r_2_4_5 > 9.251500
t_1_6 - t_1_5 - 1000.751527 s_1_5  + 0.751527 s_1_8  > -989.973300
t_1_6 - t_2_5 - 1000.871161 s_2_5  + 0.871161 s_2_8  > -978.759500
t_2_6 - t_1_5 - 1000.751527 s_1_5  + 0.751527 s_1_8  > -989.973300
t_2_6 - t_2_5 - 1000.871161 s_2_5  + 0.871161 s_2_8  > -978.759500
s_1_5 + s_1_7 + 1000 r_1_5_7 >= 2
- s_1_5 - s_1_7 - 1000 r_1_5_7 >= -1001
t_1_5 - t_1_7 - 1000.000000 u_1_5_7 - 0.000000 s_1_7  + 2000.000000 r_1_5_7 > -964.280000
s_2_5 + s_2_7 + 1000 r_2_5_7 >= 2
- s_2_5 - s_2_7 - 1000 r_2_5_7 >= -1001
t_2_5 - t_2_7 - 1000.000000 u_2_5_7 - 0.000000 s_2_7  + 2000.000000 r_2_5_7 > -953.948000
t_1_5 - t_1_8 - 1000.000000 s_1_8  > -966.936200
t_1_5 - t_2_8 - 1000.000000 s_2_8  > -955.619200
t_2_5 - t_1_8 - 1000.000000 s_1_8  > -966.936200
t_2_5 - t_2_8 - 1000.000000 s_2_8  > -955.619200
t_1_6 - t_1_7 - 1000.000000 s_1_7  > -964.280000
t_1_6 - t_2_7 - 1000.000000 s_2_7  > -953.948000
t_2_6 - t_1_7 - 1000.000000 s_1_7  > -964.280000
t_2_6 - t_2_7 - 1000.000000 s_2_7  > -953.948000
s_1_7 + s_1_5 + 1000 r_1_5_7 >= 2
- s_1_7 - s_1_5 - 1000 r_1_5_7 >= -1001
t_1_7 - t_1_5 + 1000.000000 u_1_5_7 - 0.751527 s_1_5  + 0.751527 s_1_8  + 2000.000000 r_1_5_7 > 10.026700
s_2_7 + s_2_5 + 1000 r_2_5_7 >= 2
- s_2_7 - s_2_5 - 1000 r_2_5_7 >= -1001
t_2_7 - t_2_5 + 1000.000000 u_2_5_7 - 0.871161 s_2_5  + 0.871161 s_2_8  + 2000.000000 r_2_5_7 > 21.240500
s_1_7 + s_1_8 + 1000 r_1_7_8 >= 2
- s_1_7 - s_1_8 - 1000 r_1_7_8 >= -1001
t_1_7 - t_1_8 - 1000.000000 u_1_7_8 - 0.000000 s_1_8  + 2000.000000 r_1_7_8 > -966.936200
s_2_7 + s_2_8 + 1000 r_2_7_8 >= 2
- s_2_7 - s_2_8 - 1000 r_2_7_8 >= -1001
t_2_7 - t_2_8 - 1000.000000 u_2_7_8 - 0.000000 s_2_8  + 2000.000000 r_2_7_8 > -955.619200
s_1_8 + s_1_2 + 1000 r_1_2_8 >= 2
- s_1_8 - s_1_2 - 1000 r_1_2_8 >= -1001
t_1_8 - t_1_2 + 1000.000000 u_1_2_8 - 0.751527 s_1_2  + 0.751527 s_1_7  + 2000.000000 r_1_2_8 > 22.100567
s_2_8 + s_2_2 + 1000 r_2_2_8 >= 2
- s_2_8 - s_2_2 - 1000 r_2_2_8 >= -1001
t_2_8 - t_2_2 + 1000.000000 u_2_2_8 - 0.871161 s_2_2  + 0.871161 s_2_7  + 2000.000000 r_2_2_8 > 43.716800
s_1_8 + s_1_4 + 1000 r_1_4_8 >= 2
- s_1_8 - s_1_4 - 1000 r_1_4_8 >= -1001
t_1_8 - t_1_4 + 1000.000000 u_1_4_8 - 0.751527 s_1_4  + 0.751527 s_1_7  + 2000.000000 r_1_4_8 > 9.209900
s_2_8 + s_2_4 + 1000 r_2_4_8 >= 2
- s_2_8 - s_2_4 - 1000 r_2_4_8 >= -1001
t_2_8 - t_2_4 + 1000.000000 u_2_4_8 - 0.871161 s_2_4  + 0.871161 s_2_7  + 2000.000000 r_2_4_8 > 9.251500
s_1_8 + s_1_7 + 1000 r_1_7_8 >= 2
- s_1_8 - s_1_7 - 1000 r_1_7_8 >= -1001
t_1_8 - t_1_7 + 1000.000000 u_1_7_8 - 0.000000 s_1_7  + 2000.000000 r_1_7_8 > 35.720000
s_2_8 + s_2_7 + 1000 r_2_7_8 >= 2
- s_2_8 - s_2_7 - 1000 r_2_7_8 >= -1001
t_2_8 - t_2_7 + 1000.000000 u_2_7_8 - 0.000000 s_2_7  + 2000.000000 r_2_7_8 > 46.052000
Binary
s_1_1
s_2_1
s_1_2
s_2_2
s_1_3
s_2_3
s_1_4
s_2_4
s_1_5
s_2_5
s_1_6
s_2_6
s_1_7
s_2_7
s_1_8
s_2_8
u_1_1_2
r_1_1_2
u_2_1_2
r_2_1_2
u_1_1_3
r_1_1_3
u_2_1_3
r_2_1_3
u_1_1_4
r_1_1_4
u_2_1_4
r_2_1_4
u_1_1_5
r_1_1_5
u_2_1_5
r_2_1_5
u_1_2_3
r_1_2_3
u_2_2_3
r_2_2_3
u_1_2_4
r_1_2_4
u_2_2_4
r_2_2_4
u_1_2_5
r_1_2_5
u_2_2_5
r_2_2_5
u_1_2_8
r_1_2_8
u_2_2_8
r_2_2_8
u_1_3_4
r_1_3_4
u_2_3_4
r_2_3_4
u_1_3_5
r_1_3_5
u_2_3_5
r_2_3_5
u_1_4_5
r_1_4_5
u_2_4_5
r_2_4_5
u_1_4_8
r_1_4_8
u_2_4_8
r_2_4_8
u_1_5_7
r_1_5_7
u_2_5_7
r_2_5_7
u_1_7_8
r_1_7_8
u_2_7_8
r_2_7_8

End
